Default LOCALE: LC_CTYPE=en_US.UTF-8;LC_NUMERIC=it_IT.UTF-8;LC_TIME=en_US.UTF-8;LC_COLLATE=en_US.UTF-8;LC_MONETARY=it_IT.UTF-8;LC_MESSAGES=en_US.UTF-8;LC_PAPER=it_IT.UTF-8;LC_NAME=it_IT.UTF-8;LC_ADDRESS=it_IT.UTF-8;LC_TELEPHONE=it_IT.UTF-8;LC_MEASUREMENT=it_IT.UTF-8;LC_IDENTIFICATION=it_IT.UTF-8

<<< setup, at 0s, took 1,54878e+09s


<<< generate, at 0,01s, took 0,00708485s

CPXPARAM_TimeLimit                               80
Tried aggregator 1 time.
MIP Presolve eliminated 19 rows and 19 columns.
Reduced MIP has 441 rows, 781 columns, and 2304 nonzeros.
Reduced MIP has 400 binaries, 381 generals, 0 SOSs, and 0 indicators.
Presolve time = 0,00 sec. (1,39 ticks)
Probing fixed 19 vars, tightened 0 bounds.
Probing time = 0,00 sec. (3,10 ticks)
Cover probing fixed 0 vars, tightened 361 bounds.
Tried aggregator 1 time.
MIP Presolve eliminated 21 rows and 39 columns.
MIP Presolve modified 362 coefficients.
Reduced MIP has 420 rows, 742 columns, and 2206 nonzeros.
Reduced MIP has 381 binaries, 361 generals, 0 SOSs, and 0 indicators.
Presolve time = 0,00 sec. (2,39 ticks)
Probing time = 0,00 sec. (2,68 ticks)
Clique table members: 40.
MIP emphasis: balance optimality and feasibility.
MIP search method: dynamic search.
Parallel mode: deterministic, using up to 4 threads.
Root relaxation solution time = 0,00 sec. (4,27 ticks)

        Nodes                                         Cuts/
   Node  Left     Objective  IInf  Best Integer    Best Bound    ItCnt     Gap

*     0+    0                           63,0426        0,0000           100,00%
      0     0       31,6510    51       63,0426       31,6510      261   49,79%
      0     0       35,1772    70       63,0426      Cuts: 69      398   44,20%
      0     0       35,8961    92       63,0426      Cuts: 35      512   43,06%
      0     0       38,2927    86       63,0426      Cuts: 29      771   39,26%
*     0+    0                           49,1060       38,2927            22,02%
      0     0       38,3700    90       49,1060      Cuts: 11      803   21,86%
      0     0       38,6114   101       49,1060      Cuts: 18      870   21,37%
      0     0       38,6291   101       49,1060       Cuts: 7      885   21,34%
      0     0       38,6532   103       49,1060       Cuts: 3      893   21,29%
      0     0       38,6622    97       49,1060   Flowcuts: 2      898   21,27%
      0     0       39,1849    80       49,1060       Cuts: 4      974   20,20%
      0     0       39,1849    81       49,1060      Cuts: 11     1068   20,20%
      0     0       39,1849    84       49,1060       Cuts: 6     1073   20,20%
*     0+    0                           39,4298       39,1849             0,62%

Repeating presolve.
Tried aggregator 2 times.
MIP Presolve eliminated 290 rows and 595 columns.
MIP Presolve modified 4 coefficients.
Aggregator did 30 substitutions.
Reduced MIP has 100 rows, 117 columns, and 413 nonzeros.
Reduced MIP has 46 binaries, 71 generals, 0 SOSs, and 0 indicators.
Presolve time = 0,00 sec. (0,74 ticks)
Probing fixed 1 vars, tightened 15 bounds.
Probing time = 0,00 sec. (0,09 ticks)
Cover probing fixed 0 vars, tightened 1 bounds.
Tried aggregator 1 time.
MIP Presolve eliminated 1 rows and 2 columns.
MIP Presolve modified 20 coefficients.
Reduced MIP has 99 rows, 115 columns, and 405 nonzeros.
Reduced MIP has 45 binaries, 70 generals, 0 SOSs, and 0 indicators.
Presolve time = 0,00 sec. (0,25 ticks)
Probing fixed 0 vars, tightened 1 bounds.
Probing time = 0,00 sec. (0,08 ticks)
Tried aggregator 1 time.
MIP Presolve modified 2 coefficients.
Reduced MIP has 99 rows, 115 columns, and 405 nonzeros.
Reduced MIP has 45 binaries, 70 generals, 0 SOSs, and 0 indicators.
Presolve time = 0,00 sec. (0,28 ticks)
Represolve time = 0,01 sec. (3,54 ticks)
Probing time = 0,00 sec. (0,07 ticks)
Clique table members: 28.
MIP emphasis: balance optimality and feasibility.
MIP search method: dynamic search.
Parallel mode: deterministic, using up to 4 threads.
Root relaxation solution time = 0,00 sec. (1,09 ticks)

        Nodes                                         Cuts/
   Node  Left     Objective  IInf  Best Integer    Best Bound    ItCnt     Gap

*     0+    0                           39,4298       39,1849             0,62%
      0     0       39,1849    66       39,4298       39,1849     1205    0,62%
      0     0        cutoff             39,4298       39,4298     1238    0,00%
Elapsed time = 0,58 sec. (343,38 ticks, tree = 0,01 MB, solutions = 3)

Cover cuts applied:  10
Implied bound cuts applied:  12
Flow cuts applied:  24
Zero-half cuts applied:  3
Multi commodity flow cuts applied:  1
Lift and project cuts applied:  2
Gomory fractional cuts applied:  9

Root node processing (before b&c):
  Real time             =    0,58 sec. (343,42 ticks)
Parallel b&c, 4 threads:
  Real time             =    0,00 sec. (0,00 ticks)
  Sync time (average)   =    0,00 sec.
  Wait time (average)   =    0,00 sec.
                          ------------
Total (root+branch&cut) =    0,58 sec. (343,42 ticks)

<<< solve, at 2,13s, took 0,576525s


OBJECTIVE: 39.42983
01/29/2019 17:12:01 659
solving time ~= 581.020996094
Done
 [[0 5 0 0 0 0 0 0 0 0 0 0 0 0 0 0 0 0 0 0]
         [0 0 0 0 0 0 0 4 0 0 0 0 0 0 0 0 0 0 0 0]
         [6 0 0 0 0 0 0 0 0 0 0 0 0 0 0 0 0 0 0 0]
         [0 0 7 0 0 0 0 0 0 0 0 0 0 0 0 0 0 0 0 0]
         [0 0 0 8 0 0 0 0 0 0 0 0 0 0 0 0 0 0 0 0]
         [0 0 0 0 9 0 0 0 0 0 0 0 0 0 0 0 0 0 0 0]
         [0 0 0 0 0 10 0 0 0 0 0 0 0 0 0 0 0 0 0 0]
         [0 0 0 0 0 0 0 0 3 0 0 0 0 0 0 0 0 0 0 0]
         [0 0 0 0 0 0 0 0 0 2 0 0 0 0 0 0 0 0 0 0]
         [0 0 0 0 0 0 0 0 0 0 1 0 0 0 0 0 0 0 0 0]
         [0 0 0 0 0 0 0 0 0 0 0 0 0 20 0 0 0 0 0 0]
         [0 0 0 0 0 0 11 0 0 0 0 0 0 0 0 0 0 0 0 0]
         [0 0 0 0 0 0 0 0 0 0 0 12 0 0 0 0 0 0 0 0]
         [0 0 0 0 0 0 0 0 0 0 0 0 0 0 0 0 0 19 0 0]
         [0 0 0 0 0 0 0 0 0 0 0 0 13 0 0 0 0 0 0 0]
         [0 0 0 0 0 0 0 0 0 0 0 0 0 0 14 0 0 0 0 0]
         [0 0 0 0 0 0 0 0 0 0 0 0 0 0 0 15 0 0 0 0]
         [0 0 0 0 0 0 0 0 0 0 0 0 0 0 0 0 0 0 0 18]
         [0 0 0 0 0 0 0 0 0 0 0 0 0 0 0 0 16 0 0 0]
         [0 0 0 0 0 0 0 0 0 0 0 0 0 0 0 0 0 0 17 0]]

<<< post process, at 2,13s, took 0,000969172s

// solution (optimal) with objective 39.4298326816515
// Quality Incumbent solution:
// MILP objective                                 3,9429832682e+01
// MILP solution norm |x| (Total, Max)            2,30000e+02  2,00000e+01
// MILP solution error (Ax=b) (Total, Max)        0,00000e+00  0,00000e+00
// MILP x bound error (Total, Max)                0,00000e+00  0,00000e+00
// MILP x integrality error (Total, Max)          6,75016e-14  3,55271e-15
// MILP slack bound error (Total, Max)            3,55271e-15  3,55271e-15
// 

y = [[0
             1 0 0 0 0 0 0 0 0 0 0 0 0 0 0 0 0 0 0]
             [0 0 0 0 0 0 0 1 0 0 0 0 0 0 0 0 0 0 0 0]
             [1 0 0 0 0 0 0 0 0 0 0 0 0 0 0 0 0 0 0 0]
             [0 0 1 0 0 0 0 0 0 0 0 0 0 0 0 0 0 0 0 0]
             [0 0 0 1 0 0 0 0 0 0 0 0 0 0 0 0 0 0 0 0]
             [0 0 0 0 1 0 0 0 0 0 0 0 0 0 0 0 0 0 0 0]
             [0 0 0 0 0 1 0 0 0 0 0 0 0 0 0 0 0 0 0 0]
             [0 0 0 0 0 0 0 0 1 0 0 0 0 0 0 0 0 0 0 0]
             [0 0 0 0 0 0 0 0 0 1 0 0 0 0 0 0 0 0 0 0]
             [0 0 0 0 0 0 0 0 0 0 1 0 0 0 0 0 0 0 0 0]
             [0 0 0 0 0 0 0 0 0 0 0 0 0 1 0 0 0 0 0 0]
             [0 0 0 0 0 0 1 0 0 0 0 0 0 0 0 0 0 0 0 0]
             [0 0 0 0 0 0 0 0 0 0 0 1 0 0 0 0 0 0 0 0]
             [0 0 0 0 0 0 0 0 0 0 0 0 0 0 0 0 0 1 0 0]
             [0 0 0 0 0 0 0 0 0 0 0 0 1 0 0 0 0 0 0 0]
             [0 0 0 0 0 0 0 0 0 0 0 0 0 0 1 0 0 0 0 0]
             [0 0 0 0 0 0 0 0 0 0 0 0 0 0 0 1 0 0 0 0]
             [0 0 0 0 0 0 0 0 0 0 0 0 0 0 0 0 0 0 0 1]
             [0 0 0 0 0 0 0 0 0 0 0 0 0 0 0 0 1 0 0 0]
             [0 0 0 0 0 0 0 0 0 0 0 0 0 0 0 0 0 0 1 0]];
x = [[0 5 0 0 0 0 0 0 0 0 0 0 0 0 0 0 0 0 0 0]
             [0 0 0 0 0 0 0 4 0 0 0 0 0 0 0 0 0 0 0 0]
             [6 0 0 0 0 0 0 0 0 0 0 0 0 0 0 0 0 0 0 0]
             [0 0 7 0 0 0 0 0 0 0 0 0 0 0 0 0 0 0 0 0]
             [0 0 0 8 0 0 0 0 0 0 0 0 0 0 0 0 0 0 0 0]
             [0 0 0 0 9 0 0 0 0 0 0 0 0 0 0 0 0 0 0 0]
             [0 0 0 0 0 10 0 0 0 0 0 0 0 0 0 0 0 0 0 0]
             [0 0 0 0 0 0 0 0 3 0 0 0 0 0 0 0 0 0 0 0]
             [0 0 0 0 0 0 0 0 0 2 0 0 0 0 0 0 0 0 0 0]
             [0 0 0 0 0 0 0 0 0 0 1 0 0 0 0 0 0 0 0 0]
             [0 0 0 0 0 0 0 0 0 0 0 0 0 20 0 0 0 0 0 0]
             [0 0 0 0 0 0 11 0 0 0 0 0 0 0 0 0 0 0 0 0]
             [0 0 0 0 0 0 0 0 0 0 0 12 0 0 0 0 0 0 0 0]
             [0 0 0 0 0 0 0 0 0 0 0 0 0 0 0 0 0 19 0 0]
             [0 0 0 0 0 0 0 0 0 0 0 0 13 0 0 0 0 0 0 0]
             [0 0 0 0 0 0 0 0 0 0 0 0 0 0 14 0 0 0 0 0]
             [0 0 0 0 0 0 0 0 0 0 0 0 0 0 0 15 0 0 0 0]
             [0 0 0 0 0 0 0 0 0 0 0 0 0 0 0 0 0 0 0 18]
             [0 0 0 0 0 0 0 0 0 0 0 0 0 0 0 0 16 0 0 0]
             [0 0 0 0 0 0 0 0 0 0 0 0 0 0 0 0 0 0 17 0]];

<<< done, at 2,14s, took 0,00113487s

